NAME : random_11
COMMENT : 40 random nodes
TYPE : TSP
DIMENSION : 40
EDGE_WEIGHT_TYPE : EUC_2D
NODE_COORD_SECTION
1 337 478
2 281 829
3 339 138
4 572 921
5 720 90
6 843 340
7 322 615
8 78 673
9 425 702
10 629 355
11 962 123
12 813 129
13 461 279
14 309 847
15 515 690
16 217 439
17 861 467
18 614 398
19 881 987
20 150 276
21 703 914
22 221 796
23 206 944
24 357 698
25 476 674
26 217 683
27 19 404
28 508 962
29 618 242
30 473 396
31 19 598
32 970 752
33 914 971
34 376 295
35 290 296
36 904 756
37 780 232
38 132 809
39 783 863
40 719 852
EOF